% Data file generated from RandomInstances/16_0.95_1.col DIMACS file
size = 16;

chi = 13;

adjacency = [|0,1,1,1,1,1,1,1,1,1,1,0,1,1,1,1,
|1,0,1,1,1,1,1,1,1,1,1,1,1,1,1,1,
|1,1,0,1,1,1,1,1,1,0,1,1,1,1,1,1,
|1,1,1,0,1,1,1,1,1,1,1,1,1,1,1,1,
|1,1,1,1,0,1,1,1,1,1,1,1,1,1,1,1,
|1,1,1,1,1,0,1,1,1,1,1,1,1,1,1,1,
|1,1,1,1,1,1,0,1,1,1,1,1,1,1,0,1,
|1,1,1,1,1,1,1,0,1,1,1,1,1,1,1,1,
|1,1,1,1,1,1,1,1,0,1,1,1,1,1,1,1,
|1,1,0,1,1,1,1,1,1,0,1,1,1,1,1,1,
|1,1,1,1,1,1,1,1,1,1,0,1,1,1,1,1,
|0,1,1,1,1,1,1,1,1,1,1,0,1,1,1,1,
|1,1,1,1,1,1,1,1,1,1,1,1,0,1,1,1,
|1,1,1,1,1,1,1,1,1,1,1,1,1,0,1,1,
|1,1,1,1,1,1,0,1,1,1,1,1,1,1,0,1,
|1,1,1,1,1,1,1,1,1,1,1,1,1,1,1,0,
|];